DATASET = "thpack6";
INSTANCE = "075";

WIDTH = 233;
HEIGHT = 220;
LENGTH = 587;

NO_OF_SHAPES = 15;
size = [|
  101,81,24 |
  94,72,29 |
  79,72,47 |
  90,36,35 |
  68,51,40 |
  48,45,35 |
  108,84,69 |
  91,45,31 |
  84,80,62 |
  77,71,41 |
  91,78,42 |
  82,80,60 |
  89,42,26 |
  45,41,30 |
  79,51,29 |
|];

verticality = [|
  0,0,1 |
  0,0,1 |
  1,1,1 |
  0,1,1 |
  1,1,1 |
  1,1,1 |
  1,1,1 |
  0,1,1 |
  1,1,1 |
  1,1,1 |
  0,1,1 |
  1,1,1 |
  0,1,1 |
  1,1,1 |
  0,1,1 |
|];

box_count = [
  7,
  7,
  8,
  8,
  13,
  11,
  9,
  4,
  15,
  3,
  6,
  12,
  5,
  4,
  11,
];
